c "822364.clq"
p edge 100 384
e 1 5
e 1 7
e 1 12
e 1 13
e 1 14
e 1 15
e 1 19
e 1 20
e 1 21
e 1 22
e 1 23
e 1 25
e 1 28
e 1 29
e 1 33
e 1 45
e 1 49
e 1 54
e 1 55
e 1 77
e 1 79
e 1 80
e 1 83
e 1 93
e 2 5
e 2 6
e 2 8
e 2 11
e 2 12
e 2 20
e 2 37
e 2 39
e 2 44
e 2 48
e 2 49
e 2 50
e 2 51
e 2 64
e 2 68
e 2 84
e 2 98
e 3 5
e 3 6
e 3 7
e 3 8
e 3 9
e 3 10
e 3 11
e 3 12
e 3 13
e 3 14
e 3 15
e 3 16
e 3 17
e 3 22
e 3 24
e 3 25
e 3 31
e 3 39
e 3 43
e 3 47
e 3 53
e 3 57
e 3 72
e 3 80
e 3 85
e 3 88
e 3 89
e 4 5
e 4 6
e 4 14
e 4 21
e 4 34
e 4 36
e 4 52
e 4 61
e 4 65
e 4 75
e 4 92
e 4 94
e 5 6
e 5 7
e 5 9
e 5 14
e 5 25
e 5 26
e 5 27
e 5 33
e 5 36
e 5 60
e 5 61
e 5 87
e 5 93
e 5 98
e 6 7
e 6 8
e 6 9
e 6 10
e 6 11
e 6 27
e 6 30
e 6 46
e 6 58
e 6 63
e 6 68
e 6 71
e 6 74
e 6 76
e 6 85
e 6 87
e 7 8
e 7 9
e 7 10
e 7 11
e 7 13
e 7 16
e 7 19
e 7 20
e 7 22
e 7 28
e 7 32
e 7 36
e 7 40
e 7 49
e 7 52
e 7 54
e 7 57
e 7 72
e 7 75
e 7 76
e 7 79
e 7 91
e 7 93
e 7 94
e 8 10
e 8 15
e 8 16
e 8 18
e 8 30
e 8 35
e 8 46
e 8 60
e 8 64
e 9 12
e 9 13
e 9 17
e 9 18
e 9 30
e 9 33
e 9 34
e 9 35
e 9 48
e 9 56
e 9 59
e 9 60
e 9 71
e 9 74
e 9 76
e 9 87
e 9 100
e 10 18
e 10 21
e 10 35
e 10 39
e 10 46
e 10 47
e 10 50
e 10 51
e 10 53
e 10 90
e 10 94
e 10 99
e 11 18
e 11 21
e 11 32
e 11 38
e 11 65
e 11 93
e 11 97
e 11 99
e 12 24
e 12 31
e 12 32
e 12 36
e 12 37
e 12 38
e 12 40
e 12 44
e 12 86
e 12 97
e 13 15
e 13 17
e 13 23
e 13 26
e 13 28
e 13 35
e 13 41
e 13 53
e 13 62
e 13 67
e 13 73
e 13 75
e 13 94
e 14 26
e 14 34
e 14 38
e 14 52
e 14 55
e 14 56
e 15 16
e 15 19
e 15 22
e 15 27
e 15 41
e 15 83
e 16 17
e 16 20
e 16 30
e 16 33
e 16 37
e 16 43
e 16 54
e 16 69
e 16 88
e 16 97
e 17 23
e 17 25
e 17 34
e 17 41
e 18 19
e 18 23
e 18 24
e 18 26
e 18 38
e 18 42
e 18 50
e 18 51
e 18 56
e 18 57
e 18 66
e 18 77
e 18 81
e 18 100
e 19 41
e 19 61
e 19 88
e 19 96
e 20 27
e 20 69
e 20 81
e 21 24
e 21 40
e 21 44
e 21 52
e 21 82
e 21 83
e 22 70
e 22 72
e 22 82
e 22 90
e 22 96
e 23 29
e 23 56
e 23 73
e 23 86
e 23 92
e 23 99
e 24 29
e 24 99
e 25 31
e 25 45
e 25 46
e 26 28
e 26 31
e 26 39
e 26 81
e 27 29
e 27 42
e 27 45
e 27 58
e 27 90
e 27 92
e 27 98
e 28 47
e 28 59
e 28 85
e 28 86
e 30 32
e 30 44
e 30 55
e 30 66
e 30 75
e 31 62
e 32 40
e 32 42
e 32 48
e 32 58
e 32 59
e 32 63
e 32 66
e 32 68
e 32 74
e 32 95
e 33 47
e 33 48
e 33 55
e 33 62
e 33 79
e 33 95
e 34 70
e 34 78
e 35 37
e 35 54
e 35 70
e 35 78
e 36 89
e 37 43
e 37 49
e 37 60
e 37 61
e 37 64
e 37 70
e 38 42
e 38 65
e 38 88
e 39 51
e 41 45
e 41 63
e 41 66
e 41 71
e 42 43
e 42 92
e 43 69
e 43 84
e 43 100
e 44 78
e 45 81
e 46 72
e 46 73
e 46 96
e 47 50
e 47 58
e 47 63
e 47 64
e 47 67
e 47 77
e 47 80
e 47 82
e 47 90
e 47 98
e 48 87
e 49 57
e 49 59
e 50 67
e 52 53
e 52 62
e 52 77
e 53 91
e 54 67
e 55 78
e 55 95
e 58 73
e 58 74
e 59 71
e 59 80
e 59 84
e 60 85
e 61 68
e 61 82
e 61 89
e 61 91
e 63 76
e 64 65
e 64 89
e 66 79
e 67 69
e 67 83
e 67 86
e 67 100
e 76 95
e 77 91
e 80 96
e 81 84
e 85 97
